benchmarks/crosswords/mzn/crossword3_51.fzn
array [1..811] of int: X_INTRODUCED_12 = [1,1,1,1,1,1,1,1,1,1,1,1,1,1,1,1,2,2,2,2,2,2,2,3,3,3,3,3,3,3,3,4,4,4,4,4,4,4,4,4,4,4,4,5,5,5,5,5,5,6,6,6,6,6,6,6,6,6,6,7,7,7,7,7,7,7,7,7,7,7,7,8,8,8,8,8,8,8,8,9,9,9,9,9,9,9,9,9,9,9,9,9,9,10,10,10,10,10,10,10,10,10,10,10,10,11,11,11,11,11,11,12,12,12,12,12,12,12,12,12,12,12,12,12,12,12,12,12,13,13,13,13,13,13,13,13,13,13,13,13,13,13,13,13,13,13,13,13,13,13,14,14,14,14,14,14,14,14,15,15,15,15,15,15,16,16,16,16,16,16,16,16,17,18,18,18,18,18,18,18,18,18,18,18,18,18,19,19,19,19,19,19,19,19,19,19,19,19,19,19,19,20,20,20,20,20,20,20,20,20,20,20,21,21,21,22,22,22,23,23,23,23,23,26,26,1,1,1,1,1,1,1,1,1,1,1,1,1,1,1,1,1,1,1,1,1,1,1,1,1,1,1,1,1,1,1,1,1,1,1,1,1,1,1,2,2,2,2,2,2,2,2,2,2,2,2,2,2,2,2,2,2,2,2,2,2,2,2,2,2,2,2,2,2,2,2,2,2,2,2,3,3,3,3,3,3,3,3,3,3,3,3,3,3,3,3,3,3,3,3,3,3,3,3,3,3,4,4,4,4,4,4,4,4,4,4,4,4,4,4,4,4,4,4,4,4,4,4,4,4,4,4,4,4,4,5,5,5,5,5,5,5,5,5,5,5,5,5,5,5,5,5,5,5,5,5,5,5,6,6,6,6,6,6,6,6,6,6,6,6,6,6,6,6,6,6,6,6,6,6,6,6,6,6,6,6,6,6,6,6,7,7,7,7,7,7,7,7,7,7,7,7,7,7,7,7,7,7,7,7,7,7,7,7,7,8,8,8,8,8,8,8,8,8,8,8,8,8,8,8,8,8,8,8,8,8,8,8,8,8,8,8,8,8,8,8,8,8,8,8,8,9,9,9,9,9,9,9,9,9,9,9,9,9,9,9,9,10,10,10,10,10,10,10,10,10,10,10,10,10,10,10,11,11,11,11,11,11,11,12,12,12,12,12,12,12,12,12,12,12,12,12,12,12,12,12,12,12,12,12,12,12,12,12,12,12,12,13,13,13,13,13,13,13,13,13,13,13,13,13,13,13,13,13,13,13,13,13,13,13,13,13,13,14,14,14,14,14,14,14,14,14,14,14,14,14,14,14,14,14,14,14,14,15,15,15,15,15,15,15,15,15,15,15,15,15,15,15,15,15,15,15,15,15,15,15,16,16,16,16,16,16,16,16,16,16,16,16,16,16,16,16,16,16,16,16,16,16,16,16,16,16,16,16,16,16,16,16,16,16,16,16,16,16,16,17,18,18,18,18,18,18,18,18,18,18,18,18,18,18,18,18,18,18,18,18,18,18,18,18,18,18,18,18,18,19,19,19,19,19,19,19,19,19,19,19,19,19,19,19,19,19,19,19,19,19,19,19,19,19,19,19,19,19,19,19,19,19,19,19,19,19,19,19,19,19,19,20,20,20,20,20,20,20,20,20,20,20,20,20,20,20,20,20,20,20,20,20,20,20,20,20,20,20,20,20,20,20,20,20,20,20,20,21,21,21,21,21,22,22,22,22,22,22,22,22,23,23,23,23,23,23,23,23,23,23,23,23,23,23,23,23,23,23,23,23,23,23,23,23,25,25,25,25,25,25,25,25,25,25,25,25,25,25,25,25,26,26,26,26,26];
array [1..811] of int: X_INTRODUCED_14 = [15,2,4,12,12,13,14,14,16,18,18,18,20,21,22,22,13,5,9,9,15,20,21,1,8,8,9,15,15,15,15,1,1,5,5,5,5,9,9,15,15,15,15,3,12,14,19,22,22,4,1,5,5,5,12,12,15,18,18,20,1,1,5,5,5,9,15,15,15,21,21,1,1,1,1,15,21,21,21,2,1,2,4,11,12,12,14,14,14,18,20,22,22,6,1,1,5,5,9,15,15,15,15,21,21,1,5,5,9,9,9,2,1,5,5,5,5,5,5,9,9,9,15,15,15,20,21,25,3,7,8,9,1,1,1,1,1,1,1,1,1,5,5,9,9,9,9,15,15,18,1,1,1,5,5,15,15,15,11,3,12,14,18,18,1,1,1,5,5,8,15,25,15,3,1,1,5,5,5,5,9,15,15,15,15,20,1,1,1,1,5,5,5,7,9,15,15,20,21,21,21,23,1,1,5,5,5,9,9,15,15,21,6,20,26,1,1,9,1,5,5,9,25,5,15,3,3,4,4,4,4,6,7,7,8,9,9,9,9,12,12,12,13,14,14,14,14,16,16,18,18,18,18,18,19,19,19,19,20,21,23,23,24,25,1,1,1,1,1,1,1,1,5,5,5,5,9,9,9,9,9,15,15,15,15,15,15,15,15,18,18,21,21,21,21,21,21,21,21,25,1,1,1,1,1,1,1,1,8,15,15,15,15,15,15,15,15,15,15,18,21,21,21,21,21,21,1,1,1,1,5,5,5,9,9,9,9,9,9,9,15,15,15,15,15,15,18,21,21,21,21,21,21,21,25,1,1,2,5,7,7,11,12,12,12,12,13,13,14,15,18,18,18,18,20,22,23,25,1,1,1,1,1,1,5,5,5,5,5,5,5,9,9,9,9,9,9,9,12,12,15,15,15,15,15,15,18,18,21,21,1,1,1,1,1,1,1,5,5,5,5,9,9,14,15,15,15,15,15,21,21,21,21,25,25,1,1,1,1,1,1,1,1,5,5,5,5,5,5,5,5,9,9,9,9,9,9,15,15,15,15,15,15,15,15,21,21,21,21,21,21,3,3,4,6,12,12,13,14,14,14,15,18,18,19,20,22,1,1,1,1,1,1,5,9,9,15,15,15,15,21,21,8,5,5,5,9,9,9,1,1,1,1,1,1,1,1,5,5,5,5,5,5,5,9,9,9,9,9,15,15,15,15,15,15,21,25,1,1,1,1,1,1,1,1,5,5,5,5,5,9,9,9,15,15,15,15,15,15,21,21,21,25,1,1,1,1,5,5,9,9,9,9,9,15,15,15,15,15,20,21,21,21,1,1,1,1,4,4,6,6,8,8,8,9,12,14,16,18,18,21,21,22,23,23,23,1,1,1,1,1,1,1,1,1,5,5,5,5,5,5,5,5,9,9,9,9,9,9,12,15,15,15,15,15,15,18,18,21,21,21,21,21,21,25,21,1,1,1,1,1,1,1,5,5,5,5,8,9,9,9,9,9,15,15,15,15,15,21,21,21,21,21,21,25,1,1,1,1,1,1,1,1,5,5,5,5,5,8,8,9,9,9,9,9,9,9,11,11,12,15,15,15,15,15,15,15,15,15,16,16,20,21,21,21,21,21,1,1,1,1,1,1,1,1,1,5,5,5,8,8,8,9,9,9,9,9,15,15,15,15,15,15,15,15,15,15,18,21,21,21,21,23,7,13,16,18,19,1,1,5,5,9,9,9,15,1,1,1,1,1,1,1,5,5,5,5,5,8,8,9,9,9,15,15,15,15,15,15,18,1,1,1,1,5,5,5,5,5,5,9,15,15,21,21,21,1,5,9,9,15];
array [1..811] of int: X_INTRODUCED_16 = [12,5,1,1,9,25,1,14,18,1,11,20,19,7,1,5,23,14,2,3,2,21,4,12,5,9,4,12,13,24,25,14,25,3,5,12,13,19,24,5,14,20,23,15,9,7,17,1,5,18,25,2,4,26,1,15,24,9,25,5,16,25,14,15,18,12,1,4,7,19,25,12,13,14,25,14,9,14,19,13,14,15,1,5,1,12,1,3,4,1,15,1,25,11,14,25,4,23,13,2,5,14,25,12,14,25,14,25,13,16,20,10,15,1,5,14,15,19,23,5,14,26,14,20,21,4,26,24,9,13,26,20,3,5,9,10,14,15,18,24,25,7,12,7,1,14,18,5,14,19,13,14,20,4,22,5,8,22,19,20,1,15,1,18,13,14,20,7,9,4,5,13,13,1,5,25,4,16,22,24,15,2,4,14,25,5,12,13,14,20,3,14,20,20,4,12,14,21,5,9,14,1,4,15,4,20,24,1,13,4,13,20,1,5,9,12,14,3,3,4,9,19,15,14,5,5,20,4,15,19,26,20,5,15,1,4,12,13,18,2,5,12,16,4,9,20,25,5,20,3,5,11,13,20,8,11,16,19,5,11,5,12,5,5,1,4,7,8,14,18,20,25,4,5,7,20,2,4,7,14,20,1,2,7,15,16,23,24,25,1,18,4,7,13,14,18,19,20,25,5,2,4,13,14,16,18,20,23,9,2,4,7,14,15,16,20,23,24,25,25,2,4,5,16,18,20,2,4,13,25,2,14,23,4,5,7,13,14,16,19,3,5,7,14,19,20,25,2,4,5,7,8,14,15,5,18,20,2,12,7,15,5,6,11,12,13,19,21,4,14,1,5,7,18,1,5,5,5,4,7,14,18,20,24,4,5,14,18,23,25,26,2,5,7,14,18,20,24,21,25,2,5,7,16,18,24,15,25,14,18,2,4,7,12,16,19,25,5,12,13,20,7,14,21,2,4,15,19,20,13,14,20,25,13,16,4,7,8,13,19,20,23,25,13,14,16,18,19,23,24,25,4,5,13,16,19,20,2,4,5,7,16,19,20,23,2,5,7,8,13,20,5,25,19,19,11,12,16,11,14,19,14,5,11,13,19,25,2,7,13,18,23,25,20,2,7,2,7,20,25,7,20,26,7,14,25,4,14,20,2,4,7,13,16,23,24,25,1,4,5,7,9,19,20,2,4,5,16,20,2,7,16,20,23,24,7,5,4,14,16,18,19,20,23,25,7,14,19,20,23,4,12,24,2,4,13,15,16,23,4,7,13,19,2,7,16,25,20,23,2,12,16,20,24,4,14,18,20,23,8,2,14,20,6,11,18,20,4,5,6,20,13,15,19,12,4,5,20,2,5,18,20,1,5,12,14,4,12,14,16,18,19,20,23,25,1,5,7,14,16,18,20,23,5,7,14,16,19,20,25,4,9,12,16,20,24,15,25,2,7,14,16,19,20,24,1,7,13,14,16,20,23,25,4,6,16,22,15,2,4,7,13,16,2,4,5,20,23,2,5,7,13,14,20,5,3,4,7,16,20,23,24,25,1,5,20,23,24,5,25,3,14,16,18,19,20,24,9,25,25,2,4,12,14,16,20,23,24,25,1,25,25,2,5,13,14,16,2,4,7,13,14,16,18,20,24,1,5,14,5,15,25,3,5,14,16,20,5,7,13,14,15,16,18,20,23,25,25,2,7,14,24,15,8,16,19,14,5,14,20,20,24,1,5,13,23,4,7,14,18,19,24,25,2,4,5,14,20,15,25,7,14,20,5,11,14,15,20,23,25,11,13,16,23,1,14,16,19,20,23,16,14,21,11,13,16,16,4,16,20,15];
array [1..183] of int: X_INTRODUCED_26 = [1,1,1,1,1,1,1,1,1,2,2,2,2,2,3,3,3,3,3,3,3,3,3,3,4,4,5,5,5,5,6,6,6,7,7,7,7,8,8,8,8,8,9,9,9,9,10,10,11,12,12,12,12,12,12,12,13,13,13,13,13,13,13,13,14,14,14,14,14,14,15,15,15,15,16,16,16,16,16,16,16,16,18,18,18,18,18,18,18,18,19,19,19,19,19,19,19,19,19,20,20,20,20,20,20,20,20,21,22,23,23,24,25,26,26,1,1,1,1,1,1,1,1,2,2,3,4,4,5,5,5,5,6,7,7,8,8,8,8,9,9,9,9,9,11,11,11,12,12,12,13,13,13,13,13,13,14,14,15,15,15,15,15,15,16,16,16,18,18,19,19,20,20,20,21,21,21,21,22,23,25,25,25];
array [1..183] of int: X_INTRODUCED_28 = [3,7,12,13,18,19,20,21,22,1,5,9,11,18,1,4,6,9,12,13,15,18,19,21,9,18,4,18,19,21,5,13,18,5,1,4,5,5,6,7,15,26,14,15,18,20,15,18,18,1,5,9,14,18,20,21,2,4,7,14,15,18,19,20,1,2,4,5,9,16,11,2,19,26,1,2,4,12,13,15,20,21,1,2,4,5,8,14,21,24,2,3,5,9,13,14,17,18,20,1,2,3,8,9,12,13,25,18,1,13,21,5,2,14,18,4,8,13,14,19,20,24,25,5,25,19,2,15,8,13,19,24,1,15,19,1,5,9,15,4,6,14,19,20,23,3,19,1,15,19,1,5,9,19,21,25,15,21,6,8,14,18,23,24,8,1,9,5,19,8,15,9,15,19,8,13,16,19,19,5,1,5,15];
array [1..2] of int: X_INTRODUCED_44 = [1,-1];
var 1..26: X_INTRODUCED_1;
var 1..26: X_INTRODUCED_2;
var 1..26: X_INTRODUCED_3;
var 1..26: X_INTRODUCED_4;
var 1..26: X_INTRODUCED_5;
var 1..26: X_INTRODUCED_6;
var 1..26: X_INTRODUCED_7;
var 1..26: X_INTRODUCED_8;
var 1..811: X_INTRODUCED_10 ::var_is_introduced ;
var 1..811: X_INTRODUCED_19 ::var_is_introduced ;
var 1..183: X_INTRODUCED_24 ::var_is_introduced ;
var 1..811: X_INTRODUCED_31 ::var_is_introduced ;
var 1..811: X_INTRODUCED_36 ::var_is_introduced ;
var 1..183: X_INTRODUCED_41 ::var_is_introduced ;
var bool: X_INTRODUCED_45 ::var_is_introduced :: is_defined_var;
var bool: X_INTRODUCED_46 ::var_is_introduced :: is_defined_var;
var bool: X_INTRODUCED_47 ::var_is_introduced :: is_defined_var;
var bool: X_INTRODUCED_48 ::var_is_introduced :: is_defined_var;
var bool: X_INTRODUCED_49 ::var_is_introduced :: is_defined_var;
var bool: X_INTRODUCED_50 ::var_is_introduced :: is_defined_var;
var bool: X_INTRODUCED_51 ::var_is_introduced :: is_defined_var;
var bool: X_INTRODUCED_52 ::var_is_introduced :: is_defined_var;
var bool: X_INTRODUCED_53 ::var_is_introduced :: is_defined_var;
var bool: X_INTRODUCED_54 ::var_is_introduced :: is_defined_var;
var bool: X_INTRODUCED_55 ::var_is_introduced :: is_defined_var;
var bool: X_INTRODUCED_56 ::var_is_introduced :: is_defined_var;
var bool: X_INTRODUCED_57 ::var_is_introduced :: is_defined_var;
var bool: X_INTRODUCED_58 ::var_is_introduced :: is_defined_var;
var bool: X_INTRODUCED_59 ::var_is_introduced :: is_defined_var;
var bool: X_INTRODUCED_60 ::var_is_introduced :: is_defined_var;
var bool: X_INTRODUCED_61 ::var_is_introduced :: is_defined_var;
var bool: X_INTRODUCED_62 ::var_is_introduced :: is_defined_var;
var bool: X_INTRODUCED_63 ::var_is_introduced :: is_defined_var;
var bool: X_INTRODUCED_64 ::var_is_introduced :: is_defined_var;
var bool: X_INTRODUCED_65 ::var_is_introduced :: is_defined_var;
var bool: X_INTRODUCED_66 ::var_is_introduced :: is_defined_var;
var bool: X_INTRODUCED_67 ::var_is_introduced :: is_defined_var;
var bool: X_INTRODUCED_68 ::var_is_introduced :: is_defined_var;
var bool: X_INTRODUCED_69 ::var_is_introduced :: is_defined_var;
var bool: X_INTRODUCED_70 ::var_is_introduced :: is_defined_var;
var bool: X_INTRODUCED_71 ::var_is_introduced :: is_defined_var;
var bool: X_INTRODUCED_72 ::var_is_introduced :: is_defined_var;
var bool: X_INTRODUCED_73 ::var_is_introduced :: is_defined_var;
var bool: X_INTRODUCED_74 ::var_is_introduced :: is_defined_var;
array [1..9] of var int: L:: output_array([0..8]) = [1,X_INTRODUCED_1,X_INTRODUCED_2,X_INTRODUCED_3,X_INTRODUCED_4,X_INTRODUCED_5,X_INTRODUCED_6,X_INTRODUCED_7,X_INTRODUCED_8];
constraint array_int_element(X_INTRODUCED_10,X_INTRODUCED_12,X_INTRODUCED_2):: defines_var(X_INTRODUCED_2);
constraint array_int_element(X_INTRODUCED_10,X_INTRODUCED_14,X_INTRODUCED_5):: defines_var(X_INTRODUCED_5);
constraint array_int_element(X_INTRODUCED_10,X_INTRODUCED_16,X_INTRODUCED_8):: defines_var(X_INTRODUCED_8);
constraint array_int_element(X_INTRODUCED_19,X_INTRODUCED_12,X_INTRODUCED_1):: defines_var(X_INTRODUCED_1);
constraint array_int_element(X_INTRODUCED_19,X_INTRODUCED_14,X_INTRODUCED_4):: defines_var(X_INTRODUCED_4);
constraint array_int_element(X_INTRODUCED_19,X_INTRODUCED_16,X_INTRODUCED_7):: defines_var(X_INTRODUCED_7);
constraint array_int_element(X_INTRODUCED_24,X_INTRODUCED_26,X_INTRODUCED_3):: defines_var(X_INTRODUCED_3);
constraint array_int_element(X_INTRODUCED_24,X_INTRODUCED_28,X_INTRODUCED_6):: defines_var(X_INTRODUCED_6);
constraint array_int_element(X_INTRODUCED_31,X_INTRODUCED_12,X_INTRODUCED_6):: defines_var(X_INTRODUCED_6);
constraint array_int_element(X_INTRODUCED_31,X_INTRODUCED_14,X_INTRODUCED_7):: defines_var(X_INTRODUCED_7);
constraint array_int_element(X_INTRODUCED_31,X_INTRODUCED_16,X_INTRODUCED_8):: defines_var(X_INTRODUCED_8);
constraint array_int_element(X_INTRODUCED_36,X_INTRODUCED_12,X_INTRODUCED_3):: defines_var(X_INTRODUCED_3);
constraint array_int_element(X_INTRODUCED_36,X_INTRODUCED_14,X_INTRODUCED_4):: defines_var(X_INTRODUCED_4);
constraint array_int_element(X_INTRODUCED_36,X_INTRODUCED_16,X_INTRODUCED_5):: defines_var(X_INTRODUCED_5);
constraint array_int_element(X_INTRODUCED_41,X_INTRODUCED_26,X_INTRODUCED_1):: defines_var(X_INTRODUCED_1);
constraint array_int_element(X_INTRODUCED_41,X_INTRODUCED_28,X_INTRODUCED_2):: defines_var(X_INTRODUCED_2);
constraint array_bool_or([X_INTRODUCED_45,X_INTRODUCED_46,X_INTRODUCED_47],true);
constraint array_bool_or([X_INTRODUCED_48,X_INTRODUCED_49,X_INTRODUCED_50],true);
constraint array_bool_or([X_INTRODUCED_45,X_INTRODUCED_51],true);
constraint array_bool_or([X_INTRODUCED_46,X_INTRODUCED_52],true);
constraint array_bool_or([X_INTRODUCED_50,X_INTRODUCED_53,X_INTRODUCED_54],true);
constraint array_bool_or([X_INTRODUCED_55,X_INTRODUCED_56,X_INTRODUCED_57],true);
constraint array_bool_or([X_INTRODUCED_58,X_INTRODUCED_59],true);
constraint array_bool_or([X_INTRODUCED_60,X_INTRODUCED_61],true);
constraint array_bool_or([X_INTRODUCED_57,X_INTRODUCED_62,X_INTRODUCED_63],true);
constraint array_bool_or([X_INTRODUCED_64,X_INTRODUCED_65,X_INTRODUCED_66],true);
constraint array_bool_or([X_INTRODUCED_67,X_INTRODUCED_68,X_INTRODUCED_69],true);
constraint array_bool_or([X_INTRODUCED_70,X_INTRODUCED_71],true);
constraint array_bool_or([X_INTRODUCED_52,X_INTRODUCED_60,X_INTRODUCED_72],true);
constraint array_bool_or([X_INTRODUCED_50,X_INTRODUCED_62,X_INTRODUCED_73],true);
constraint array_bool_or([X_INTRODUCED_53,X_INTRODUCED_63,X_INTRODUCED_74],true);
constraint int_lin_ne_reif(X_INTRODUCED_44,[X_INTRODUCED_1,X_INTRODUCED_3],0,X_INTRODUCED_45):: defines_var(X_INTRODUCED_45);
constraint int_lin_ne_reif(X_INTRODUCED_44,[X_INTRODUCED_2,X_INTRODUCED_4],0,X_INTRODUCED_46):: defines_var(X_INTRODUCED_46);
constraint int_lin_ne_reif([-1],[X_INTRODUCED_5],-1,X_INTRODUCED_47):: defines_var(X_INTRODUCED_47);
constraint int_lin_ne_reif(X_INTRODUCED_44,[X_INTRODUCED_1,X_INTRODUCED_6],0,X_INTRODUCED_48):: defines_var(X_INTRODUCED_48);
constraint int_lin_ne_reif(X_INTRODUCED_44,[X_INTRODUCED_2,X_INTRODUCED_7],0,X_INTRODUCED_49):: defines_var(X_INTRODUCED_49);
constraint int_lin_ne_reif([-1],[X_INTRODUCED_8],-1,X_INTRODUCED_50):: defines_var(X_INTRODUCED_50);
constraint int_lin_ne_reif(X_INTRODUCED_44,[X_INTRODUCED_2,X_INTRODUCED_6],0,X_INTRODUCED_51):: defines_var(X_INTRODUCED_51);
constraint int_lin_ne_reif([-1],[X_INTRODUCED_7],-1,X_INTRODUCED_52):: defines_var(X_INTRODUCED_52);
constraint int_lin_ne_reif(X_INTRODUCED_44,[X_INTRODUCED_1,X_INTRODUCED_2],0,X_INTRODUCED_53):: defines_var(X_INTRODUCED_53);
constraint int_lin_ne_reif(X_INTRODUCED_44,[X_INTRODUCED_2,X_INTRODUCED_5],0,X_INTRODUCED_54):: defines_var(X_INTRODUCED_54);
constraint int_lin_ne_reif(X_INTRODUCED_44,[X_INTRODUCED_3,X_INTRODUCED_6],0,X_INTRODUCED_55):: defines_var(X_INTRODUCED_55);
constraint int_lin_ne_reif(X_INTRODUCED_44,[X_INTRODUCED_4,X_INTRODUCED_7],0,X_INTRODUCED_56):: defines_var(X_INTRODUCED_56);
constraint int_lin_ne_reif(X_INTRODUCED_44,[X_INTRODUCED_5,X_INTRODUCED_8],0,X_INTRODUCED_57):: defines_var(X_INTRODUCED_57);
constraint int_lin_ne_reif(X_INTRODUCED_44,[X_INTRODUCED_4,X_INTRODUCED_6],0,X_INTRODUCED_58):: defines_var(X_INTRODUCED_58);
constraint int_lin_ne_reif([1],[X_INTRODUCED_5],1,X_INTRODUCED_59):: defines_var(X_INTRODUCED_59);
constraint int_lin_ne_reif(X_INTRODUCED_44,[X_INTRODUCED_3,X_INTRODUCED_1],0,X_INTRODUCED_60):: defines_var(X_INTRODUCED_60);
constraint int_lin_ne_reif(X_INTRODUCED_44,[X_INTRODUCED_5,X_INTRODUCED_7],0,X_INTRODUCED_61):: defines_var(X_INTRODUCED_61);
constraint int_lin_ne_reif(X_INTRODUCED_44,[X_INTRODUCED_3,X_INTRODUCED_2],0,X_INTRODUCED_62):: defines_var(X_INTRODUCED_62);
constraint int_lin_ne_reif(X_INTRODUCED_44,[X_INTRODUCED_4,X_INTRODUCED_5],0,X_INTRODUCED_63):: defines_var(X_INTRODUCED_63);
constraint int_lin_ne_reif(X_INTRODUCED_44,[X_INTRODUCED_6,X_INTRODUCED_3],0,X_INTRODUCED_64):: defines_var(X_INTRODUCED_64);
constraint int_lin_ne_reif(X_INTRODUCED_44,[X_INTRODUCED_7,X_INTRODUCED_6],0,X_INTRODUCED_65):: defines_var(X_INTRODUCED_65);
constraint int_lin_ne_reif([1],[X_INTRODUCED_8],1,X_INTRODUCED_66):: defines_var(X_INTRODUCED_66);
constraint int_lin_ne_reif(X_INTRODUCED_44,[X_INTRODUCED_6,X_INTRODUCED_1],0,X_INTRODUCED_67):: defines_var(X_INTRODUCED_67);
constraint int_lin_ne_reif(X_INTRODUCED_44,[X_INTRODUCED_7,X_INTRODUCED_4],0,X_INTRODUCED_68):: defines_var(X_INTRODUCED_68);
constraint int_lin_ne_reif(X_INTRODUCED_44,[X_INTRODUCED_8,X_INTRODUCED_7],0,X_INTRODUCED_69):: defines_var(X_INTRODUCED_69);
constraint int_lin_ne_reif(X_INTRODUCED_44,[X_INTRODUCED_6,X_INTRODUCED_2],0,X_INTRODUCED_70):: defines_var(X_INTRODUCED_70);
constraint int_lin_ne_reif(X_INTRODUCED_44,[X_INTRODUCED_7,X_INTRODUCED_5],0,X_INTRODUCED_71):: defines_var(X_INTRODUCED_71);
constraint int_lin_ne_reif(X_INTRODUCED_44,[X_INTRODUCED_6,X_INTRODUCED_4],0,X_INTRODUCED_72):: defines_var(X_INTRODUCED_72);
constraint int_lin_ne_reif(X_INTRODUCED_44,[X_INTRODUCED_6,X_INTRODUCED_5],0,X_INTRODUCED_73):: defines_var(X_INTRODUCED_73);
constraint int_lin_ne_reif(X_INTRODUCED_44,[X_INTRODUCED_7,X_INTRODUCED_8],0,X_INTRODUCED_74):: defines_var(X_INTRODUCED_74);
solve :: int_search(L,first_fail,indomain_min,complete) satisfy;
